p cnf 1548 1480
324 0
75 0
234 0
-3 0
-21 0
-4 0
-22 0
-5 0
-7 0
-9 0
-14 0
-16 0
-34 0
-25 0
-46 0
-47 0
-48 0
-49 0
-50 0
-55 0
-73 0
-91 0
-109 0
-58 0
-59 0
-63 0
-82 0
-84 0
-85 0
-92 0
-93 0
-77 0
-117 0
-122 0
-124 0
-125 0
-145 0
-130 0
-150 0
-165 0
-170 0
-177 0
-197 0
-205 0
-209 0
-235 0
-220 0
-221 0
-259 0
-270 0
-271 0
-284 0
-295 0
-307 0
-311 0
-298 0
-316 0
-320 0
-323 0
-288 0
-36 0
-100 0
-257 0
-20 0
-192 0
-23 0
-273 0
-39 0
-180 0
-216 0
-305 0
-310 0
-309 0
-308 0
-57 0
-72 0
-74 0
-112 0
-128 0
-142 0
-210 0
-215 0
-237 0
-282 0
-319 0
-111 0
1264 233 250 -251 0
-1244 228 246 245 0
1244 228 -246 245 0
-689 -86 -103 104 0
386 -24 -26 8 0
-387 24 -8 26 0
689 -86 -103 -104 0
387 24 -8 -26 0
-388 24 8 26 0
388 24 8 -26 0
-589 -60 -76 78 0
-1256 248 231 249 0
1256 248 231 -249 0
-249 -232 250 -1257 0
1301 -243 260 -261 0
692 86 -104 103 0
-386 -24 26 8 0
588 60 76 -78 0
-588 60 76 78 0
587 -60 76 -78 0
-697 106 -88 -105 0
697 -106 -88 -105 0
-698 106 88 -105 0
698 -106 88 -105 0
-699 -88 105 106 0
699 -88 105 -106 0
-1259 249 -232 250 0
1258 -249 232 -250 0
-1258 -249 232 250 0
1257 -249 -232 -250 0
1279 -238 -255 -256 0
-1279 -238 -255 256 0
-690 86 -103 104 0
1249 -248 -247 -230 0
-1250 248 -247 230 0
1250 -248 -247 230 0
-1251 -230 247 248 0
1251 -230 247 -248 0
-1252 248 247 230 0
1252 -248 247 230 0
-1253 -248 -231 249 0
1253 -248 -231 -249 0
-1254 -248 231 249 0
1254 -248 231 -249 0
-1255 248 -231 249 0
1255 248 -231 -249 0
-1300 243 -260 261 0
1300 243 -260 -261 0
-1301 -243 260 261 0
1259 249 -232 -250 0
-1260 249 232 250 0
1260 249 232 -250 0
-1261 251 -250 -233 0
1261 -251 -250 -233 0
-1262 251 -250 233 0
1262 -251 -250 233 0
-1263 250 -233 251 0
1263 250 -233 -251 0
589 -60 -76 -78 0
-1264 251 233 250 0
-684 102 101 66 0
-1249 248 -247 -230 0
-449 41 42 -24 0
448 -41 -42 24 0
-448 -41 24 42 0
-385 -24 26 -8 0
385 -24 -26 -8 0
-587 76 78 -60 0
700 88 105 -106 0
-700 88 105 106 0
-458 43 26 44 0
457 43 -26 -44 0
-457 43 44 -26 0
456 -43 26 -44 0
691 -86 -104 103 0
-692 86 104 103 0
620 68 67 -86 0
373 -41 -2 40 0
704 106 89 -107 0
-704 106 89 107 0
703 106 -89 -107 0
-703 106 -89 107 0
702 -106 89 -107 0
-702 -106 89 107 0
701 -106 -89 -107 0
-701 -106 -89 107 0
683 -102 101 -66 0
-683 102 101 -66 0
455 -43 -44 -26 0
-456 -43 26 44 0
-691 -86 104 103 0
690 86 -104 -103 0
682 -101 66 -102 0
-682 -101 66 102 0
681 -101 -102 -66 0
-681 102 -101 -66 0
447 -41 -42 -24 0
-447 -41 42 -24 0
672 -99 98 81 0
-672 98 99 81 0
442 -40 -38 2 0
-393 -10 -27 28 0
393 -10 -27 -28 0
-705 -107 -90 108 0
705 -107 -90 -108 0
684 -102 101 66 0
1210 236 -238 219 0
-394 10 -27 28 0
394 10 -27 -28 0
-395 -10 28 27 0
-41 -24 -6 -40 0
450 41 -42 24 0
-450 41 42 24 0
449 41 -42 -24 0
175 -174 193 -191 0
708 107 90 -108 0
-708 107 90 108 0
707 107 -90 -108 0
-707 107 -90 108 0
706 -107 90 -108 0
-706 -107 90 108 0
-1213 -238 239 -219 0
1213 -238 -239 -219 0
1169 226 191 -227 0
-1222 241 223 -240 0
1222 -241 223 -240 0
-1223 241 240 -223 0
1223 -241 240 -223 0
-1224 241 223 240 0
1224 -241 240 223 0
-1225 -224 -241 242 0
1225 -224 -241 -242 0
-1226 224 -241 242 0
1226 224 -241 -242 0
-1227 -224 242 241 0
1227 -224 -242 241 0
-1228 224 242 241 0
1228 224 -242 241 0
-1229 -225 -242 243 0
1161 224 -207 -225 0
-1162 224 207 225 0
1162 224 207 -225 0
-1163 -225 -208 226 0
1163 -225 -208 -226 0
-1164 -225 208 226 0
1164 -225 208 -226 0
-1165 225 -208 226 0
1165 225 -208 -226 0
-1166 225 208 226 0
1377 -263 -280 -281 0
-1167 -226 191 227 0
-1377 -263 -280 281 0
1372 261 278 -279 0
-1372 261 278 279 0
1371 -261 278 -279 0
1168 -226 -191 -227 0
-1169 226 191 227 0
-1216 219 239 238 0
1216 238 -239 219 0
-1221 -223 -240 241 0
1221 -223 -240 -241 0
-1438 278 -277 296 0
1438 278 -277 -296 0
-1447 -281 -297 299 0
1447 -281 -297 -299 0
-1210 238 219 236 0
1212 -236 -238 219 0
-1448 281 -297 299 0
1448 281 -297 -299 0
-1449 299 297 -281 0
1449 -299 297 -281 0
-1450 299 297 281 0
1450 -299 297 281 0
-1456 301 -300 283 0
1456 -301 -300 283 0
1229 -225 -242 -243 0
-1230 225 -242 243 0
1230 225 -242 -243 0
-1231 -225 242 243 0
1231 -225 242 -243 0
-1232 225 242 243 0
1232 225 242 -243 0
1179 -230 -229 -212 0
-1214 -238 239 219 0
1214 -238 -239 219 0
-1215 -219 239 238 0
1215 -239 -219 238 0
1309 -245 262 -263 0
-1310 245 262 263 0
1310 245 262 -263 0
-1271 -236 254 -253 0
1271 -253 -236 -254 0
-1272 236 254 -253 0
1272 236 -253 -254 0
-1273 253 -236 254 0
1166 225 208 -226 0
-1302 261 243 260 0
1302 -261 243 260 0
-1303 -261 -244 262 0
-261 -244 -262 1303 0
-1304 -261 244 262 0
1304 -261 244 -262 0
-1305 261 -244 262 0
1305 261 -244 -262 0
-1306 261 244 262 0
1306 261 244 -262 0
-1307 -245 -262 263 0
1307 -245 -262 -263 0
1274 236 253 -254 0
-1274 236 254 253 0
1273 253 -236 -254 0
-1280 238 -255 256 0
1167 -226 191 -227 0
-1168 -226 -191 227 0
-1308 245 -262 263 0
1308 245 -262 -263 0
-1309 -245 262 263 0
1182 -230 212 229 0
-1183 -230 231 -213 0
1183 -230 -231 -213 0
-1184 -230 231 213 0
1184 -230 -231 213 0
-1185 -213 231 230 0
1185 -213 -231 230 0
-1186 213 231 230 0
-1170 226 -191 227 0
1299 -243 -260 -261 0
-1179 230 -229 -212 0
1170 226 -191 -227 0
1186 213 -231 230 0
-1201 -218 217 236 0
1201 -218 217 -236 0
-1159 -224 -207 225 0
1159 -224 -207 -225 0
-1160 -224 207 225 0
-225 1160 207 -224 0
-1161 224 -207 225 0
1280 238 -255 -256 0
-1281 -238 255 256 0
1281 -256 -238 255 0
-1282 238 256 255 0
1282 -256 238 255 0
-1299 -243 -260 261 0
-824 137 120 138 0
824 137 120 -138 0
-825 -138 -121 139 0
-1180 230 -229 212 0
1180 -230 -229 212 0
-1181 -212 229 230 0
1181 -230 229 -212 0
-1182 230 229 212 0
-817 -119 -136 137 0
817 -119 -136 -137 0
-818 119 -136 137 0
818 119 -136 -137 0
-819 137 136 -119 0
819 -137 136 -119 0
524 60 43 -61 0
731 -115 -97 -114 0
-731 115 -97 -114 0
458 43 -44 26 0
-552 32 67 68 0
552 32 67 -68 0
-553 -68 69 -51 0
553 -68 -69 -51 0
-554 -68 51 69 0
554 -68 51 -69 0
754 119 102 -120 0
-754 119 102 120 0
820 -137 136 119 0
-820 137 136 119 0
501 -38 -56 37 0
-501 -38 56 37 0
-524 60 43 61 0
523 60 -43 -61 0
-793 129 131 -113 0
753 119 -102 -120 0
-753 119 -102 120 0
752 -119 102 -120 0
-752 -119 102 120 0
751 -119 -102 -120 0
-828 138 121 139 0
503 -38 -56 -37 0
-503 -38 56 -37 0
502 38 -56 37 0
-502 38 56 37 0
827 138 -121 -139 0
-823 137 -120 138 0
823 137 -120 -138 0
-827 138 -121 139 0
826 -138 121 -139 0
-826 -138 121 139 0
825 -138 -121 -139 0
808 -134 116 133 0
-809 -134 135 99 0
809 -134 -135 99 0
-810 -134 135 -99 0
810 -134 -135 -99 0
-811 135 99 134 0
811 -135 99 134 0
-812 135 -99 134 0
812 134 -99 -135 0
-517 40 -42 60 0
822 -138 120 -137 0
734 -115 97 114 0
564 70 -71 53 0
-564 70 71 53 0
563 70 -71 -53 0
-563 70 71 -53 0
-808 134 116 133 0
807 -116 133 -134 0
-833 -140 141 -123 0
504 38 -56 -37 0
-504 56 -37 38 0
828 138 121 -139 0
-179 233 214 232 0
101 83 -64 -99 0
83 101 99 64 0
-751 -119 -102 120 0
-852 127 -110 146 0
274 -239 -275 256 0
-373 -2 41 40 0
376 41 2 -40 0
-373 -41 -2 -40 0
160 141 -123 159 0
373 -2 41 -40 0
-94 37 -113 -95 0
-256 -272 274 255 0
-256 239 274 -275 0
191 -174 193 -175 0
175 -191 174 -193 0
-239 256 240 258 0
-1212 238 219 -236 0
-53 18 54 -35 0
-376 41 2 40 0
748 -119 -118 101 0
-748 119 -118 101 0
-137 138 -120 -821 0
562 -70 53 -71 0
-562 -70 53 71 0
561 -70 -71 -53 0
-561 -70 71 -53 0
556 68 51 -69 0
-556 68 51 69 0
-252 -287 -304 -306 0
-299 -300 264 281 0
318 -321 -301 303 0
-174 -175 -193 -191 0
733 -115 -97 114 0
-734 115 114 97 0
191 -174 -193 175 0
-175 -191 193 174 0
-38 2 19 37 0
38 2 19 -37 0
-90 54 89 -71 0
255 -274 256 -272 0
-53 -18 54 35 0
175 191 193 174 0
-1057 -162 198 -179 0
-841 143 -141 -123 0
191 -175 -193 174 0
440 -40 38 2 0
-732 97 -114 115 0
732 -115 -114 97 0
-733 115 -97 114 0
-597 79 80 -62 0
597 79 -62 -80 0
376 -41 2 40 0
551 -32 67 -68 0
-551 -32 67 68 0
550 -68 -67 32 0
-550 68 32 -67 0
-549 68 -32 -67 0
549 -68 -67 -32 0
-555 68 69 -51 0
555 68 -51 -69 0
-657 -78 -95 96 0
-440 40 38 2 0
-590 60 -76 78 0
-621 -68 86 -67 0
-421 -17 35 -15 0
421 -17 -35 -15 0
-422 17 35 -15 0
422 17 -35 -15 0
-423 -17 35 15 0
619 -86 67 -68 0
632 -88 71 -89 0
-632 -88 71 89 0
631 -88 -71 -89 0
395 -10 -28 27 0
-396 10 28 27 0
396 10 -28 27 0
405 -13 -30 -31 0
-405 -13 -30 31 0
590 60 -76 -78 0
621 -68 -86 -67 0
-376 -41 -40 2 0
-455 -43 44 -26 0
-442 40 -38 2 0
-290 -256 291 274 0
291 -274 256 -290 0
660 95 78 -96 0
-660 95 78 96 0
659 95 -96 -78 0
-659 95 96 -78 0
658 78 -95 -96 0
-658 78 -95 96 0
657 -96 -95 -78 0
-628 70 -87 88 0
-619 -68 67 86 0
423 -17 -35 15 0
627 -70 -87 -88 0
-627 -70 -87 88 0
626 86 69 -87 0
-626 86 69 87 0
625 86 -69 -87 0
-625 86 -69 87 0
624 -86 69 -87 0
-624 -86 69 87 0
415 -15 32 -33 0
-416 15 32 33 0
416 15 32 -33 0
623 -86 -69 -87 0
-623 -86 -69 87 0
622 -86 68 -67 0
-622 68 -67 86 0
-633 88 -71 89 0
-803 -115 132 133 0
-598 80 62 79 0
598 79 62 -80 0
424 17 -35 15 0
-424 17 35 15 0
-607 83 -65 64 0
607 -65 -83 64 0
-631 -88 -71 89 0
630 87 70 -88 0
-630 88 70 87 0
629 87 -70 -88 0
-629 87 -70 88 0
628 70 -87 -88 0
596 -80 62 -79 0
-491 -35 -52 53 0
-807 -116 133 134 0
806 -134 116 -133 0
-806 134 116 -133 0
805 -133 -116 -134 0
-805 -133 -116 134 0
804 115 132 -133 0
-804 115 132 133 0
803 -115 132 -133 0
-822 -137 120 138 0
821 -138 -120 -137 0
491 -35 -52 -53 0
793 -131 129 -113 0
-794 129 131 113 0
794 -131 129 113 0
-596 80 62 -79 0
-620 68 67 86 0
-406 13 -30 31 0
-519 -40 -42 60 0
796 -129 113 -131 0
-796 -129 113 131 0
519 -40 -42 -60 0
-520 -40 42 60 0
520 -40 42 -60 0
-521 -60 -43 61 0
521 -43 -61 -60 0
-522 43 61 -60 0
522 43 -61 -60 0
-523 -43 61 60 0
-634 88 71 89 0
633 88 -71 -89 0
795 -129 -131 -113 0
-795 -129 -113 131 0
406 13 -30 -31 0
-407 -13 31 30 0
407 -13 -31 30 0
-595 -79 -62 80 0
595 -79 -62 -80 0
-408 13 30 31 0
408 13 -31 30 0
-413 -15 -32 33 0
413 -15 -32 -33 0
-414 15 33 -32 0
414 15 -32 -33 0
-415 -15 32 33 0
634 88 71 -89 0
802 115 -132 -133 0
-802 115 -132 133 0
517 40 -42 -60 0
-518 40 42 60 0
518 40 42 -60 0
494 35 52 -53 0
-494 35 52 53 0
493 52 -53 -35 0
-493 -35 52 53 0
801 -115 -132 -133 0
-801 -115 -132 133 0
492 35 -52 -53 0
-492 35 -52 53 0
654 -76 -94 -95 0
1042 176 193 -194 0
876 134 -151 -152 0
-877 -134 151 152 0
877 -134 151 -152 0
-878 134 151 152 0
878 134 151 -152 0
-887 -137 -154 155 0
887 -137 -154 -155 0
-888 137 -154 155 0
-1068 183 200 201 0
1068 183 200 -201 0
-1069 -201 -184 202 0
1069 -201 -184 -202 0
-1070 -201 184 202 0
1070 -201 184 -202 0
-654 -76 -94 95 0
901 157 -140 -158 0
-902 157 140 158 0
902 157 140 -158 0
-903 -158 -141 159 0
861 147 -148 129 0
-862 147 -129 148 0
862 147 -129 -148 0
-863 -131 -148 149 0
863 -131 -148 -149 0
-864 -148 131 149 0
864 -148 131 -149 0
-865 -131 148 149 0
865 -131 148 -149 0
-866 148 131 149 0
866 148 131 -149 0
-875 -134 -151 152 0
1057 -162 -198 -179 0
-1058 162 198 -179 0
1058 162 -198 -179 0
-1061 -182 -199 200 0
1061 -182 -199 -200 0
-1062 182 -199 200 0
1062 182 -199 -200 0
-1063 -182 199 200 0
1063 -182 199 -200 0
-1064 182 199 200 0
1064 182 199 -200 0
-1065 201 -200 -183 0
956 171 154 -172 0
1065 -201 -200 -183 0
-1066 201 183 -200 0
1066 -201 183 -200 0
-1067 201 -183 200 0
201 -184 202 -1071 0
1071 -184 -202 201 0
201 184 202 -1072 0
1072 184 -202 201 0
-1077 -186 -203 204 0
1077 -203 -204 -186 0
186 -203 204 -1078 0
1078 186 -203 -204 0
-1079 203 204 -186 0
1079 203 -204 -186 0
-1080 203 204 186 0
875 -134 -151 -152 0
-876 134 -151 152 0
1090 -206 189 -207 0
40 41 -24 -6 0
851 -146 110 127 0
852 127 -110 -146 0
-855 -146 -129 147 0
855 -146 -129 -147 0
-856 -146 129 147 0
856 -146 129 -147 0
-857 147 -129 146 0
857 146 -129 -147 0
-858 147 146 129 0
858 -147 129 146 0
-859 -147 148 129 0
1080 203 -204 186 0
859 -148 129 -147 0
-860 -129 148 -147 0
860 -129 -148 -147 0
-861 147 148 129 0
833 -140 -141 -123 0
-951 -169 -153 171 0
951 -169 -153 -171 0
-952 171 -169 153 0
952 -171 -169 153 0
-953 -171 -154 172 0
953 -171 -154 -172 0
-954 -171 172 154 0
954 -171 -172 154 0
-961 -173 174 -156 0
961 -173 -174 -156 0
-956 171 154 172 0
-898 139 156 157 0
-955 171 172 -154 0
955 171 -172 -154 0
-897 -139 156 157 0
896 -156 139 -157 0
-896 -156 139 157 0
895 -156 -139 -157 0
-895 -156 -139 157 0
890 137 154 -155 0
-890 137 154 155 0
889 -137 154 -155 0
-889 -137 154 155 0
-851 146 110 127 0
848 -144 126 143 0
-962 -173 174 156 0
-899 -157 -140 158 0
899 -158 -140 -157 0
-900 158 140 -157 0
900 -158 140 -157 0
-834 -140 123 141 0
834 -140 123 -141 0
-835 140 141 -123 0
835 140 -141 -123 0
-836 140 123 141 0
836 140 123 -141 0
841 -143 -141 -123 0
-843 143 141 -123 0
-1028 173 -190 191 0
-998 182 183 164 0
997 -183 -164 182 0
-997 183 182 -164 0
996 -182 -183 164 0
-996 -182 183 164 0
995 -182 -183 -164 0
888 137 -154 -155 0
-848 144 126 143 0
847 143 -126 -144 0
-847 143 -126 144 0
846 -144 126 -143 0
-846 144 126 -143 0
845 -143 -126 -144 0
-845 -143 -126 144 0
843 -143 141 -123 0
1028 173 -190 -191 0
1157 -224 223 -206 0
-1029 -173 191 190 0
1029 -173 -191 190 0
-1030 191 190 173 0
1030 190 -191 173 0
-1039 -176 -193 194 0
1039 -176 -193 -194 0
-1040 176 -193 194 0
1040 176 -193 -194 0
-1013 186 -169 187 0
981 -161 -178 -179 0
-982 161 -178 179 0
982 161 -178 -179 0
-983 -161 178 179 0
983 -161 178 -179 0
897 -139 156 -157 0
898 139 156 -157 0
-984 161 178 179 0
984 161 178 -179 0
-991 -181 -164 182 0
991 -181 -164 -182 0
-992 182 -181 164 0
992 -182 -181 164 0
-993 181 -164 182 0
993 181 -164 -182 0
-994 182 181 164 0
994 -182 181 164 0
-995 -182 183 -164 0
-1016 -169 188 -187 0
1016 -169 -188 -187 0
-1017 169 188 187 0
1017 169 -188 187 0
-1019 -171 -188 189 0
1019 -171 -188 -189 0
171 -188 189 -1020 0
171 -188 -189 1020 0
-1021 -171 188 189 0
1021 -171 188 -189 0
-1022 171 188 189 0
1022 171 188 -189 0
-1027 -173 -190 191 0
1027 -173 -190 -191 0
-1041 -176 193 194 0
1041 -176 193 -194 0
-1042 176 193 194 0
-1157 224 223 -206 0
-1043 -194 176 195 0
1043 -194 176 -195 0
-1044 -194 -176 195 0
1044 -194 -176 -195 0
-1045 176 195 194 0
1045 -195 176 194 0
-1046 -176 195 194 0
1046 -195 -176 194 0
1013 186 -169 -187 0
-1014 186 169 187 0
1014 186 169 -187 0
-1015 169 188 -187 0
1015 169 -188 -187 0
-1156 224 206 -223 0
1156 -224 206 -223 0
-901 158 -140 157 0
-1158 224 206 223 0
1158 -224 206 223 0
-1091 -189 206 207 0
1091 -189 206 -207 0
-1092 189 206 207 0
1092 -207 206 189 0
-1109 -194 -211 212 0
1109 -194 -211 -212 0
-1110 212 -211 194 0
1110 -212 -211 194 0
-1111 -194 211 212 0
1111 -194 211 -212 0
1067 -201 -183 200 0
-1118 -213 196 214 0
1118 -213 196 -214 0
1018 -169 -188 187 0
-1018 -169 188 187 0
1155 -224 -206 -223 0
-1155 224 -206 -223 0
1138 201 218 -219 0
-1138 201 218 219 0
1137 -201 218 -219 0
-1137 -201 218 219 0
1136 201 -219 -218 0
-1136 201 219 -218 0
1135 -201 -219 -218 0
-1135 -201 219 -218 0
1120 213 196 -214 0
-1120 213 196 214 0
1119 213 -196 -214 0
-1119 213 -196 214 0
-261 -278 279 -1369 0
1369 -261 -278 -279 0
-1001 183 184 -166 0
1001 183 -184 -166 0
-1002 183 184 166 0
1002 183 -184 166 0
-1007 186 -185 -168 0
1007 -186 -185 -168 0
-1008 -185 168 186 0
1008 -185 168 -186 0
-1009 186 185 -168 0
1009 -186 185 -168 0
-1010 185 168 186 0
1010 185 168 -186 0
-967 -157 174 175 0
1113 -213 -212 -195 0
-1114 213 195 -212 0
1114 -213 -212 195 0
-1115 213 212 -195 0
1115 -213 -195 212 0
-1116 213 195 212 0
1116 -213 195 212 0
-1117 -213 -196 214 0
1117 -213 -196 -214 0
998 182 -183 164 0
-999 -183 -166 184 0
999 -183 -166 -184 0
-1012 -186 169 187 0
1011 -186 -169 -187 0
-1011 -186 -169 187 0
967 -157 174 -175 0
-968 157 174 175 0
968 157 174 -175 0
-1000 -183 184 166 0
1000 -183 -184 166 0
-1316 247 265 -264 0
1316 -265 247 -264 0
-1317 -247 265 264 0
1317 -265 -247 264 0
-1318 247 265 264 0
1318 -265 247 264 0
-248 266 -265 -1319 0
1319 -248 -265 -266 0
-1320 248 -265 266 0
-1368 278 277 260 0
1368 -278 277 260 0
1320 248 -265 -266 0
-1321 -248 265 266 0
1321 -248 265 -266 0
-1322 248 265 266 0
1322 248 265 -266 0
-1323 -249 -266 267 0
1323 -249 -266 -267 0
-1334 269 251 268 0
1334 -269 251 268 0
-1365 -277 -260 278 0
1365 -277 -260 -278 0
-1366 278 -277 260 0
1366 -278 -277 260 0
-1367 277 -260 278 0
1367 277 -260 -278 0
1524 317 300 -318 0
-1524 317 300 318 0
1523 317 -318 -300 0
-1370 261 -278 279 0
1370 261 -278 -279 0
-1315 -247 265 -264 0
1315 -265 -247 -264 0
-1404 269 286 287 0
1404 269 286 -287 0
-1411 -289 -272 290 0
1411 -289 -272 -290 0
-1412 -289 272 290 0
1412 -289 272 -290 0
-1413 289 -272 290 0
-1113 213 -195 -212 0
-1324 249 -266 267 0
1324 249 -266 -267 0
-1325 -249 266 267 0
1325 -249 266 -267 0
-1398 -285 286 268 0
1398 -285 -286 268 0
-1399 285 -268 286 0
1399 285 -268 -286 0
-1400 285 286 268 0
1400 285 -286 268 0
-1401 -269 -286 287 0
-1371 -261 278 279 0
1414 289 272 -290 0
-1414 289 272 290 0
1413 289 -272 -290 0
1112 -212 211 194 0
-1112 212 211 194 0
1012 -186 169 -187 0
1401 -269 -286 -287 0
-1402 269 -286 287 0
1402 269 -286 -287 0
-1403 -269 286 287 0
1403 -269 286 -287 0
1518 -317 299 -315 0
-1519 -299 315 317 0
1519 -299 315 -317 0
-1520 317 315 299 0
1520 -317 315 299 0
-1521 -317 318 -300 0
1464 285 -302 -303 0
-1419 -274 292 -291 0
1521 -317 -300 -318 0
-1522 -317 318 300 0
1522 -317 -318 300 0
-1523 317 318 -300 0
-1436 278 296 277 0
1435 277 -296 -278 0
-1435 -278 277 296 0
1420 274 -292 -291 0
-1421 -274 292 291 0
1421 -274 -292 291 0
-1422 291 292 274 0
1429 -294 -276 293 0
1422 291 -292 274 0
-1429 294 -276 293 0
-1538 304 -321 322 0
904 -158 141 -159 0
-1420 -291 292 274 0
1419 -274 -292 -291 0
1436 278 -296 277 0
-1437 -278 -277 296 0
1437 -278 -277 -296 0
-1518 317 299 -315 0
1506 -313 296 -314 0
-1507 313 -296 314 0
1507 313 -296 -314 0
-1508 313 296 314 0
1463 -285 -302 -303 0
1508 313 296 -314 0
-1517 317 -315 -299 0
-1090 -206 189 207 0
-1332 251 -268 269 0
1332 251 -268 -269 0
-1333 -251 268 269 0
1333 -251 268 -269 0
1538 304 -321 -322 0
-1464 285 -302 303 0
-1465 -285 302 303 0
1465 -285 302 -303 0
-1466 285 302 303 0
1466 285 302 -303 0
-1497 312 293 -294 0
1497 -312 293 -294 0
-1498 294 312 293 0
-1326 249 266 267 0
1517 -317 -315 -299 0
1089 -206 -189 -207 0
-1089 -206 -189 207 0
1498 294 -312 293 0
-1499 -294 312 -293 0
1499 -294 -312 -293 0
-1500 312 -293 294 0
1500 -312 -293 294 0
-1505 -313 -296 314 0
1505 -313 -314 -296 0
-1506 -313 296 314 0
-963 173 174 -156 0
962 -173 -174 156 0
-918 144 161 162 0
917 -144 161 -162 0
905 158 -141 -159 0
-905 158 -141 159 0
-917 -144 161 162 0
916 -161 144 -162 0
-916 162 144 -161 0
915 -144 -162 -161 0
-915 -144 162 -161 0
914 -161 160 143 0
-914 161 160 143 0
913 -161 160 -143 0
-913 161 160 -143 0
912 143 -160 -161 0
-912 143 -160 161 0
911 -143 -160 -161 0
-911 -143 -160 161 0
906 158 141 -159 0
-906 158 141 159 0
1379 -263 280 -281 0
-1380 263 280 281 0
-904 -158 141 159 0
903 -158 -141 -159 0
950 169 153 -171 0
-950 169 153 171 0
949 -171 169 -153 0
-949 171 169 -153 0
-981 -161 -178 179 0
972 -176 175 158 0
-972 158 175 176 0
971 -158 175 -176 0
-971 -158 175 176 0
970 158 -176 -175 0
1331 -251 -268 -269 0
966 157 -174 -175 0
-966 157 -174 175 0
965 -174 -175 -157 0
-965 -157 -174 175 0
964 173 156 -174 0
-964 173 174 156 0
963 173 -174 -156 0
922 146 -163 -164 0
-922 146 -163 164 0
-1378 263 -280 281 0
1378 263 -280 -281 0
-1379 -263 280 281 0
-969 -158 176 -175 0
969 -158 -176 -175 0
-970 158 176 -175 0
-1331 -251 -268 269 0
1326 249 266 -267 0
921 -146 -163 -164 0
-921 -146 -163 164 0
918 144 -162 161 0
1397 -285 -268 -286 0
-1397 -285 -268 286 0
1396 266 267 -285 0
-1396 285 266 267 0
1395 266 -267 -285 0
-1395 266 -267 285 0
1394 -266 267 -285 0
-1394 -266 267 285 0
1393 -266 -267 -285 0
-941 169 -168 -151 0
941 -169 -151 -168 0
-1393 -266 -267 285 0
1380 263 280 -281 0
-1463 -285 -302 303 0
-923 -146 163 164 0
-933 -149 -166 167 0
924 146 163 -164 0
-924 146 163 164 0
923 -146 163 -164 0
933 -149 -166 -167 0
-934 149 -166 167 0
934 149 -166 -167 0
-935 -149 166 167 0
935 -149 166 -167 0
-936 149 166 167 0
936 149 166 -167 0
-256 258 239 0
580 -40 -76 0
-580 -40 76 0
579 40 -76 0
-579 40 76 0
1265 -251 -252 0
-1265 -251 252 0
334 2 -6 0
-1267 251 252 0
337 6 -8 0
-287 306 304 0
989 -163 -181 0
103 -102 67 0
-184 185 -167 0
304 286 -303 0
326 1 -2 0
-184 -185 167 0
277 241 -276 0
-352 13 15 0
195 196 -178 0
352 13 -15 0
-355 17 15 0
355 -17 15 0
-105 104 -87 0
-191 174 -228 0
360 1 -19 0
-2 -38 -37 0
-360 1 19 0
-168 -167 -132 0
283 -265 -264 0
-265 283 -281 0
-333 -2 6 0
333 -2 -6 0
-334 2 6 0
1267 251 -252 0
-231 -232 214 0
1427 -294 -293 0
990 -181 163 0
-337 6 8 0
189 190 172 0
-101 -64 99 0
214 231 232 0
359 -1 -19 0
184 -185 -167 0
184 185 167 0
-29 -65 64 0
347 -13 -12 0
-232 231 -214 0
-348 13 12 0
348 -13 12 0
243 -226 -244 0
8 26 27 0
243 226 244 0
-351 -13 15 0
351 -13 -15 0
-779 127 -37 0
245 244 227 0
200 217 -218 0
266 302 301 0
-266 -302 301 0
266 -302 -301 0
302 -266 -301 0
-208 190 -207 0
-356 17 -15 0
356 -17 -15 0
-357 -17 18 0
357 -17 -18 0
-358 17 18 0
358 17 -18 0
-76 37 -94 0
-359 -1 19 0
-254 -236 255 0
-338 -6 8 0
338 -6 -8 0
-341 10 8 0
1458 -301 300 0
173 -155 172 0
173 155 -172 0
-258 256 239 0
-1458 301 300 0
-258 -276 -275 0
-173 -155 -172 0
920 -163 -127 0
-1455 301 -283 0
341 -10 8 0
44 62 -61 0
-243 226 -244 0
13 32 -31 0
272 253 -254 0
-28 -29 -11 0
-173 155 172 0
297 -296 -279 0
116 115 -98 0
29 30 12 0
-211 -229 -228 0
-247 -229 246 0
-1059 -181 199 0
253 -272 254 0
-256 -255 -274 0
-256 272 -274 0
272 256 274 0
-262 279 280 0
1455 -301 -283 0
343 -10 -11 0
-1427 294 -293 0
344 10 -11 0
-750 119 118 0
-345 12 -11 0
345 -11 -12 0
312 -313 -277 0
-56 94 -37 0
-990 181 163 0
-346 11 12 0
346 11 -12 0
-347 13 -12 0
-195 -178 -196 0
264 281 -283 0
779 -127 -37 0
196 -195 178 0
-325 -1 2 0
325 -1 -2 0
-13 32 31 0
-243 -226 244 0
-326 1 2 0
13 -32 31 0
-277 -241 -276 0
-277 241 276 0
-29 -65 66 0
277 -241 276 0
1130 199 -217 0
-13 -32 -31 0
191 211 -193 0
191 228 -227 0
114 96 -113 0
56 110 -37 0
-315 -314 -297 0
207 -208 -190 0
-342 10 -8 0
342 -10 -8 0
-343 -10 11 0
-1540 322 321 0
-344 10 11 0
208 190 207 0
-1202 236 218 0
1202 -236 218 0
747 -119 -101 0
-2 38 37 0
1540 -322 321 0
750 -119 118 0
-1055 198 179 0
1055 -198 179 0
1243 -246 -228 0
-1243 -228 246 0
1242 -245 -246 0
-1242 -245 246 0
120 -103 -121 0
188 206 187 0
-176 -178 -160 0
-1203 236 -217 0
260 242 241 0
-174 228 -227 0
1269 -253 217 0
-135 -118 136 0
-1270 253 -217 0
1270 -253 -217 0
-204 219 -222 0
-1060 199 181 0
1129 -199 -217 0
-176 178 160 0
-193 -174 211 0
-1130 199 217 0
45 28 64 0
-747 119 -101 0
-1537 322 -304 0
1537 -322 -304 0
-76 56 -94 0
608 65 -83 0
15 -51 52 0
-608 83 65 0
293 -292 275 0
176 -178 160 0
174 -191 -211 0
-842 143 123 0
-1129 -199 217 0
609 -64 -83 0
854 -146 -127 0
-609 83 -64 0
-1269 253 217 0
943 -169 168 0
176 178 -160 0
-239 -222 240 0
132 131 -114 0
-41 40 24 0
-18 -35 -54 0
-854 146 -127 0
202 203 185 0
-148 166 164 0
653 76 -95 0
-653 95 76 0
-439 -2 40 0
-942 169 151 0
942 -169 151 0
-943 169 168 0
439 -2 -40 0
842 -143 123 0
656 94 -95 0
95 -656 94 0
133 132 -151 0
-152 -153 -135 0
671 -81 -99 0
-671 -81 99 0
670 -98 -99 0
-670 -98 99 0
152 -153 135 0
-154 -153 136 0
-154 153 -136 0
154 153 136 0
-1409 289 -253 0
1409 -289 -253 0
-1410 289 253 0
81 -80 -45 0
1410 -289 253 0
-138 155 -156 0
-989 181 -163 0
-263 -264 246 0
126 108 -123 0
-1430 294 276 0
-256 -239 275 0
-99 -118 64 0
41 -40 24 0
1430 -294 276 0
18 35 -54 0
187 223 -222 0
-254 255 -219 0
97 98 80 0
287 -252 306 0
252 -287 306 0
429 -19 -37 0
-429 -19 37 0
-207 208 -190 0
236 -255 219 0
-306 287 252 0
-256 -239 -258 0
-97 79 96 0
153 -152 135 0
1060 181 -199 0
153 152 -135 0
256 239 275 0
31 -66 -67 0
250 268 -267 0
-153 154 -136 0
-256 -274 -291 0
919 -163 127 0
78 79 -61 0
-919 163 127 0
780 -127 37 0
-253 -254 -272 0
-780 127 37 0
139 140 121 0
139 -140 -121 0
27 -45 -44 0
-140 -139 121 0
-69 -52 70 0
-231 232 -214 0
140 -139 -121 0
272 -253 254 0
-33 -32 -51 0
-255 256 274 0
1059 -181 -199 0
-196 178 195 0
1203 -236 -217 0
-920 163 -127 0
38 -19 37 0
-38 -19 -37 0
430 19 -37 0
1211 -238 -219 0
-1211 238 -219 0
-42 -24 -43 0
-127 37 129 0
43 -42 24 0
42 -24 43 0
-43 42 24 0
-105 -123 -121 0
-291 256 274 0
-430 19 37 0
-64 118 0
-312 313 0
127 -129 0
-322 306 0
-116 98 0
-64 -45 0
-206 -187 0
-155 156 0
138 156 0
-141 -160 0
-129 -37 0
-188 -206 0
135 -136 0
-136 118 0
-64 -28 0
-133 151 0
114 -132 0
-131 -132 0
121 103 0
-120 121 0
-164 -166 0
148 -166 0
301 321 0
-318 321 0
-115 -116 0
113 -114 0
-96 -114 0
95 113 0
61 -62 0
-96 97 0
277 313 0
97 -79 0
-56 -110 0
-189 -190 0
-172 -190 0
87 105 0
-104 105 0
102 -103 0
-103 -67 0
-83 -101 0
-98 -97 0
-98 -80 0
-160 123 0
-81 45 0
-250 -268 0
80 -81 0
263 264 0
69 -70 0
44 45 0
45 -27 0
123 -126 0
-232 -233 0
-187 -223 0
-255 254 0
267 -268 0
-52 51 0
-246 264 0
-258 -240 0
67 66 0
-15 -52 0
32 51 0
33 51 0
179 -233 0
-214 -233 0
-185 -203 0
193 -211 0
-159 -160 0
-70 52 0
-202 -203 0
53 -54 0
-31 67 0
-242 -260 0
-260 -241 0
-223 222 0
-101 118 0
76 94 0
222 -240 0
-66 29 0
279 -297 0
-78 -79 0
-89 90 0
-286 -304 0
276 275 0
299 300 0
65 29 0
-245 -227 0
-217 218 0
61 -79 0
-200 218 0
-219 222 0
-66 65 0
276 258 0
-274 275 0
11 29 0
28 29 0
121 123 0
105 123 0
-54 90 0
-110 37 0
94 113 0
-37 113 0
-64 65 0
6 24 0
290 -291 0
-26 -27 0
-8 -27 0
296 -297 0
228 229 0
71 90 0
211 229 0
321 -303 0
-126 -108 0
227 -228 0
132 168 0
204 222 0
303 -304 0
239 -240 0
151 -132 0
168 167 0
-244 -245 0
-29 -30 0
-12 -30 0
-246 247 0
247 229 0
265 -283 0
-264 300 0
-281 300 0
297 315 0
99 118 0
262 -280 0
-280 -279 0
314 315 0
-62 -44 0
292 -293 0
-275 -293 0
